c "572843.clq"
p edge 100 1344
e 1 17
e 1 18
e 1 20
e 1 21
e 1 22
e 1 23
e 1 24
e 1 25
e 1 26
e 1 27
e 1 29
e 1 32
e 1 33
e 1 34
e 1 35
e 1 36
e 1 40
e 1 41
e 1 42
e 1 43
e 1 46
e 1 48
e 1 54
e 1 55
e 1 56
e 1 57
e 1 59
e 1 60
e 1 61
e 1 62
e 1 64
e 1 67
e 1 68
e 1 69
e 1 76
e 1 82
e 1 83
e 1 84
e 1 88
e 1 90
e 1 95
e 1 97
e 1 98
e 1 100
e 2 17
e 2 18
e 2 19
e 2 20
e 2 21
e 2 22
e 2 23
e 2 25
e 2 26
e 2 27
e 2 29
e 2 30
e 2 32
e 2 33
e 2 36
e 2 37
e 2 38
e 2 39
e 2 40
e 2 41
e 2 43
e 2 44
e 2 48
e 2 50
e 2 56
e 2 57
e 2 66
e 2 67
e 2 69
e 2 72
e 2 74
e 2 75
e 2 76
e 2 77
e 2 78
e 2 81
e 2 86
e 2 87
e 2 88
e 2 89
e 2 92
e 2 99
e 3 17
e 3 18
e 3 19
e 3 20
e 3 26
e 3 35
e 3 53
e 3 59
e 3 60
e 3 62
e 3 63
e 3 81
e 4 17
e 4 18
e 4 19
e 4 23
e 4 25
e 4 27
e 4 36
e 4 41
e 4 53
e 4 74
e 4 86
e 5 17
e 5 18
e 5 19
e 5 21
e 5 24
e 5 25
e 5 28
e 5 29
e 5 30
e 5 31
e 5 33
e 5 34
e 5 39
e 5 44
e 5 45
e 5 46
e 5 47
e 5 55
e 5 56
e 5 57
e 5 58
e 5 65
e 5 66
e 5 69
e 5 75
e 5 95
e 6 17
e 6 18
e 6 19
e 6 20
e 6 21
e 6 22
e 6 23
e 6 24
e 6 27
e 6 35
e 6 38
e 6 39
e 6 43
e 6 46
e 6 47
e 6 49
e 6 50
e 6 55
e 6 58
e 6 59
e 6 61
e 6 64
e 6 69
e 6 70
e 6 72
e 6 83
e 6 92
e 6 94
e 6 96
e 7 17
e 7 18
e 7 19
e 7 20
e 7 22
e 7 24
e 7 38
e 7 44
e 7 45
e 7 48
e 7 56
e 7 65
e 7 68
e 7 70
e 7 72
e 8 17
e 8 18
e 8 19
e 8 20
e 8 21
e 8 22
e 8 23
e 8 24
e 8 25
e 8 29
e 8 32
e 8 33
e 8 34
e 8 37
e 8 51
e 8 59
e 8 83
e 8 84
e 8 91
e 8 94
e 9 17
e 9 20
e 9 22
e 9 23
e 9 24
e 9 26
e 9 27
e 9 32
e 9 55
e 9 59
e 9 63
e 9 74
e 9 95
e 10 17
e 10 18
e 10 19
e 10 20
e 10 21
e 10 23
e 10 24
e 10 25
e 10 26
e 10 28
e 10 31
e 10 35
e 10 37
e 10 38
e 10 39
e 10 42
e 10 44
e 10 45
e 10 52
e 10 55
e 10 66
e 10 69
e 10 71
e 10 72
e 10 77
e 10 80
e 10 85
e 10 87
e 10 88
e 10 94
e 10 99
e 11 17
e 11 18
e 11 19
e 11 20
e 11 21
e 11 22
e 11 24
e 11 25
e 11 27
e 11 28
e 11 29
e 11 32
e 11 36
e 11 37
e 11 38
e 11 39
e 11 43
e 11 45
e 11 46
e 11 52
e 11 54
e 11 55
e 11 62
e 11 65
e 11 68
e 11 71
e 11 73
e 11 82
e 11 86
e 11 89
e 11 91
e 11 98
e 11 100
e 12 17
e 12 18
e 12 19
e 12 20
e 12 21
e 12 22
e 12 23
e 12 25
e 12 26
e 12 30
e 12 33
e 12 34
e 12 36
e 12 39
e 12 40
e 12 42
e 12 44
e 12 45
e 12 47
e 12 54
e 12 58
e 12 63
e 12 65
e 12 72
e 12 81
e 12 92
e 13 17
e 13 18
e 13 19
e 13 20
e 13 21
e 13 22
e 13 23
e 13 24
e 13 27
e 13 28
e 13 30
e 13 31
e 13 33
e 13 34
e 13 36
e 13 37
e 13 38
e 13 39
e 13 40
e 13 43
e 13 44
e 13 45
e 13 47
e 13 49
e 13 56
e 13 60
e 13 67
e 13 69
e 13 72
e 13 84
e 13 86
e 13 87
e 13 90
e 13 91
e 14 17
e 14 18
e 14 19
e 14 21
e 14 23
e 14 27
e 14 29
e 14 30
e 14 31
e 14 38
e 14 49
e 14 70
e 14 78
e 14 84
e 14 91
e 14 92
e 14 95
e 15 17
e 15 18
e 15 19
e 15 20
e 15 21
e 15 22
e 15 23
e 15 26
e 15 27
e 15 28
e 15 29
e 15 34
e 15 35
e 15 37
e 15 38
e 15 39
e 15 41
e 15 43
e 15 44
e 15 47
e 15 52
e 15 57
e 15 66
e 15 67
e 15 80
e 15 92
e 15 95
e 15 97
e 16 17
e 16 18
e 16 19
e 16 20
e 16 21
e 16 22
e 16 24
e 16 26
e 16 29
e 16 30
e 16 31
e 16 35
e 16 36
e 16 41
e 16 43
e 16 45
e 16 46
e 16 47
e 16 49
e 16 52
e 16 60
e 16 61
e 16 63
e 16 65
e 16 71
e 16 72
e 16 74
e 16 75
e 17 18
e 17 19
e 17 20
e 17 21
e 17 22
e 17 23
e 17 24
e 17 25
e 17 26
e 17 27
e 17 28
e 17 30
e 17 31
e 17 32
e 17 33
e 17 34
e 17 35
e 17 36
e 17 38
e 17 42
e 17 43
e 17 44
e 17 46
e 17 47
e 17 48
e 17 50
e 17 51
e 17 53
e 17 57
e 17 58
e 17 60
e 17 63
e 17 64
e 17 68
e 17 70
e 17 72
e 17 75
e 17 76
e 17 78
e 17 79
e 17 80
e 17 82
e 17 85
e 17 86
e 17 88
e 17 91
e 17 93
e 17 96
e 17 98
e 17 99
e 18 19
e 18 20
e 18 21
e 18 22
e 18 23
e 18 24
e 18 25
e 18 26
e 18 27
e 18 28
e 18 29
e 18 30
e 18 31
e 18 34
e 18 35
e 18 37
e 18 39
e 18 40
e 18 41
e 18 43
e 18 44
e 18 46
e 18 47
e 18 49
e 18 53
e 18 54
e 18 55
e 18 56
e 18 57
e 18 58
e 18 64
e 18 66
e 18 67
e 18 70
e 18 75
e 18 83
e 18 85
e 18 86
e 18 97
e 18 99
e 18 100
e 19 20
e 19 21
e 19 22
e 19 23
e 19 24
e 19 25
e 19 26
e 19 27
e 19 28
e 19 29
e 19 31
e 19 32
e 19 33
e 19 35
e 19 37
e 19 38
e 19 43
e 19 44
e 19 45
e 19 46
e 19 48
e 19 49
e 19 50
e 19 51
e 19 54
e 19 55
e 19 56
e 19 59
e 19 64
e 19 67
e 19 68
e 19 76
e 19 77
e 19 79
e 19 80
e 19 81
e 19 82
e 19 83
e 19 85
e 19 88
e 19 92
e 19 94
e 19 98
e 20 21
e 20 22
e 20 23
e 20 24
e 20 25
e 20 28
e 20 29
e 20 30
e 20 31
e 20 32
e 20 34
e 20 35
e 20 36
e 20 39
e 20 40
e 20 41
e 20 42
e 20 43
e 20 44
e 20 45
e 20 48
e 20 49
e 20 51
e 20 52
e 20 57
e 20 58
e 20 62
e 20 63
e 20 64
e 20 76
e 20 77
e 20 80
e 20 87
e 20 90
e 20 91
e 20 96
e 20 98
e 21 22
e 21 25
e 21 26
e 21 28
e 21 29
e 21 30
e 21 32
e 21 33
e 21 34
e 21 37
e 21 38
e 21 39
e 21 41
e 21 42
e 21 44
e 21 46
e 21 49
e 21 50
e 21 52
e 21 56
e 21 57
e 21 59
e 21 60
e 21 62
e 21 67
e 21 71
e 21 73
e 21 79
e 21 87
e 21 92
e 21 95
e 21 98
e 21 99
e 22 23
e 22 24
e 22 25
e 22 26
e 22 27
e 22 28
e 22 29
e 22 30
e 22 31
e 22 33
e 22 34
e 22 38
e 22 40
e 22 46
e 22 47
e 22 48
e 22 49
e 22 50
e 22 54
e 22 56
e 22 57
e 22 60
e 22 61
e 22 63
e 22 69
e 22 71
e 22 73
e 22 74
e 22 75
e 22 77
e 22 79
e 22 81
e 22 87
e 22 88
e 22 90
e 23 24
e 23 25
e 23 26
e 23 27
e 23 28
e 23 30
e 23 31
e 23 32
e 23 34
e 23 35
e 23 36
e 23 37
e 23 40
e 23 42
e 23 45
e 23 46
e 23 47
e 23 50
e 23 54
e 23 56
e 23 58
e 23 59
e 23 62
e 23 65
e 23 67
e 23 73
e 23 76
e 23 77
e 23 78
e 23 79
e 23 81
e 23 82
e 23 87
e 23 89
e 23 92
e 23 93
e 23 95
e 23 100
e 24 25
e 24 26
e 24 27
e 24 28
e 24 29
e 24 30
e 24 32
e 24 33
e 24 34
e 24 35
e 24 36
e 24 40
e 24 41
e 24 45
e 24 47
e 24 48
e 24 50
e 24 54
e 24 55
e 24 56
e 24 57
e 24 59
e 24 62
e 24 66
e 24 67
e 24 68
e 24 69
e 24 70
e 24 71
e 24 74
e 24 75
e 24 77
e 24 79
e 24 80
e 24 83
e 24 85
e 24 90
e 24 98
e 24 100
e 25 26
e 25 27
e 25 28
e 25 30
e 25 31
e 25 32
e 25 33
e 25 34
e 25 35
e 25 37
e 25 40
e 25 42
e 25 44
e 25 46
e 25 51
e 25 54
e 25 56
e 25 68
e 25 73
e 25 74
e 25 76
e 25 90
e 25 93
e 25 97
e 25 100
e 26 28
e 26 29
e 26 32
e 26 35
e 26 36
e 26 37
e 26 38
e 26 39
e 26 40
e 26 42
e 26 43
e 26 47
e 26 49
e 26 50
e 26 52
e 26 58
e 26 59
e 26 60
e 26 64
e 26 68
e 26 70
e 26 75
e 26 77
e 26 84
e 26 85
e 26 86
e 26 88
e 26 90
e 26 91
e 26 92
e 26 94
e 26 97
e 27 28
e 27 31
e 27 33
e 27 42
e 27 44
e 27 45
e 27 49
e 27 50
e 27 52
e 27 53
e 27 61
e 27 62
e 27 65
e 27 67
e 27 71
e 27 73
e 27 76
e 27 82
e 27 83
e 27 84
e 27 87
e 27 94
e 27 98
e 27 100
e 28 29
e 28 30
e 28 31
e 28 32
e 28 33
e 28 39
e 28 43
e 28 48
e 28 49
e 28 51
e 28 55
e 28 58
e 28 61
e 28 66
e 28 71
e 28 79
e 28 85
e 28 87
e 28 88
e 28 94
e 28 100
e 29 30
e 29 31
e 29 32
e 29 33
e 29 36
e 29 39
e 29 42
e 29 48
e 29 49
e 29 50
e 29 51
e 29 53
e 29 56
e 29 57
e 29 68
e 29 75
e 29 77
e 29 81
e 29 83
e 29 84
e 29 87
e 29 94
e 29 95
e 29 97
e 30 31
e 30 32
e 30 34
e 30 35
e 30 36
e 30 37
e 30 40
e 30 41
e 30 42
e 30 44
e 30 45
e 30 48
e 30 51
e 30 52
e 30 53
e 30 54
e 30 58
e 30 61
e 30 63
e 30 67
e 30 68
e 30 70
e 30 76
e 30 78
e 30 83
e 30 86
e 30 89
e 30 93
e 30 96
e 30 99
e 30 100
e 31 36
e 31 41
e 31 42
e 31 43
e 31 53
e 31 54
e 31 59
e 31 60
e 31 61
e 31 63
e 31 68
e 31 69
e 31 71
e 31 72
e 31 73
e 31 79
e 31 81
e 31 84
e 31 91
e 31 93
e 31 94
e 32 33
e 32 43
e 32 50
e 32 52
e 32 55
e 32 57
e 32 70
e 32 71
e 32 73
e 32 74
e 32 75
e 32 76
e 32 78
e 32 82
e 32 84
e 32 86
e 32 88
e 32 93
e 32 97
e 33 34
e 33 37
e 33 38
e 33 39
e 33 47
e 33 50
e 33 54
e 33 59
e 33 63
e 33 64
e 33 65
e 33 67
e 33 74
e 33 78
e 33 79
e 33 82
e 33 84
e 33 88
e 33 90
e 33 97
e 34 35
e 34 36
e 34 37
e 34 40
e 34 41
e 34 42
e 34 47
e 34 51
e 34 52
e 34 53
e 34 54
e 34 55
e 34 61
e 34 69
e 34 77
e 34 79
e 34 80
e 34 83
e 34 89
e 34 100
e 35 45
e 35 51
e 35 53
e 35 67
e 35 71
e 35 73
e 35 83
e 35 99
e 36 37
e 36 38
e 36 40
e 36 41
e 36 42
e 36 43
e 36 46
e 36 47
e 36 53
e 36 54
e 36 57
e 36 58
e 36 60
e 36 61
e 36 64
e 36 65
e 36 68
e 36 70
e 36 76
e 36 92
e 36 95
e 37 38
e 37 39
e 37 40
e 37 41
e 37 45
e 37 46
e 37 48
e 37 49
e 37 51
e 37 53
e 37 59
e 37 60
e 37 65
e 37 67
e 37 73
e 37 76
e 37 83
e 37 84
e 37 86
e 37 87
e 37 89
e 37 90
e 37 91
e 37 93
e 37 94
e 37 98
e 38 41
e 38 62
e 38 83
e 38 84
e 38 90
e 39 40
e 39 49
e 39 51
e 39 52
e 39 56
e 39 58
e 39 59
e 39 63
e 39 80
e 39 83
e 39 85
e 39 86
e 39 87
e 39 93
e 40 41
e 40 42
e 40 46
e 40 47
e 40 48
e 40 50
e 40 54
e 40 62
e 40 67
e 40 70
e 40 71
e 40 74
e 40 75
e 40 76
e 40 80
e 40 82
e 40 85
e 40 87
e 40 94
e 40 97
e 41 44
e 41 45
e 41 49
e 41 50
e 41 51
e 41 53
e 41 58
e 41 65
e 41 66
e 41 67
e 41 75
e 41 79
e 41 81
e 41 87
e 41 89
e 41 100
e 42 48
e 42 51
e 42 52
e 42 53
e 42 55
e 42 58
e 42 64
e 42 70
e 42 74
e 42 76
e 42 77
e 42 85
e 42 89
e 43 48
e 43 51
e 43 65
e 43 71
e 43 72
e 43 78
e 43 92
e 43 98
e 44 48
e 44 56
e 44 60
e 44 70
e 44 78
e 44 81
e 44 86
e 44 89
e 44 90
e 44 97
e 45 46
e 45 60
e 45 63
e 45 64
e 45 66
e 45 69
e 45 72
e 45 74
e 45 85
e 45 90
e 45 91
e 45 92
e 45 99
e 46 58
e 46 61
e 46 62
e 46 72
e 46 73
e 46 84
e 46 87
e 46 89
e 47 52
e 47 53
e 47 55
e 47 96
e 47 98
e 47 100
e 48 50
e 48 52
e 48 54
e 48 57
e 48 65
e 48 69
e 48 78
e 48 79
e 48 81
e 48 82
e 49 52
e 49 53
e 49 56
e 49 58
e 49 59
e 49 60
e 49 63
e 49 65
e 49 71
e 49 74
e 49 77
e 49 82
e 49 83
e 49 84
e 49 85
e 49 86
e 49 96
e 49 99
e 50 51
e 50 55
e 50 62
e 50 66
e 50 71
e 50 79
e 50 85
e 50 86
e 50 93
e 50 94
e 51 61
e 51 66
e 51 68
e 51 70
e 51 74
e 51 80
e 51 82
e 51 96
e 51 99
e 52 62
e 52 74
e 52 77
e 52 81
e 52 84
e 53 55
e 53 57
e 53 62
e 53 74
e 53 77
e 53 81
e 53 85
e 54 57
e 54 61
e 54 62
e 54 64
e 54 66
e 54 68
e 54 69
e 54 70
e 54 75
e 54 76
e 54 90
e 54 98
e 55 60
e 55 69
e 55 73
e 55 76
e 55 78
e 55 92
e 55 95
e 55 96
e 56 60
e 56 61
e 56 63
e 56 64
e 56 82
e 56 96
e 56 97
e 57 61
e 57 64
e 57 65
e 57 66
e 57 72
e 57 73
e 57 78
e 58 59
e 58 68
e 58 69
e 58 78
e 58 79
e 58 80
e 58 89
e 59 61
e 59 62
e 59 63
e 59 68
e 59 73
e 59 80
e 59 82
e 59 88
e 59 91
e 60 63
e 60 64
e 60 66
e 60 69
e 60 72
e 60 73
e 60 82
e 60 86
e 60 88
e 60 94
e 60 96
e 60 97
e 60 99
e 61 64
e 61 65
e 61 78
e 61 95
e 61 96
e 61 97
e 62 75
e 62 78
e 62 93
e 63 66
e 63 85
e 63 89
e 63 91
e 63 94
e 63 100
e 64 66
e 64 87
e 64 88
e 64 99
e 65 93
e 66 70
e 66 77
e 66 89
e 66 92
e 67 78
e 67 80
e 67 90
e 67 93
e 67 99
e 68 71
e 68 72
e 68 73
e 68 80
e 68 81
e 69 72
e 69 75
e 69 100
e 70 79
e 70 89
e 70 96
e 70 97
e 71 77
e 71 81
e 71 93
e 72 81
e 72 91
e 73 75
e 73 80
e 73 86
e 73 88
e 73 91
e 73 92
e 74 79
e 74 96
e 75 95
e 76 80
e 76 85
e 76 94
e 76 96
e 77 88
e 77 93
e 77 98
e 78 92
e 78 98
e 78 99
e 79 93
e 79 96
e 80 83
e 80 84
e 80 89
e 80 90
e 80 91
e 81 82
e 81 95
e 82 89
e 82 95
e 83 97
e 85 88
e 85 93
e 85 97
e 85 99
e 86 95
e 86 100
e 87 90
e 88 91
e 89 99
e 90 96
e 91 94
e 91 98
e 92 95
e 93 98
e 93 100
